399,18
660,427
744,469
652,410
718,520
751,-38
415,213
652,410
559,166
894,514
510,461
533,383
602,909
463,564
975,555
681,826
718,292
668,432
753,354
533,-50
532,112
1162,651
1101,406
545,139
597,-127
972,617
972,617
709,583
709,397
523,188
981,406
